p cnf 7230 16
-564 -2302 -2776 0
564 -2777 0
2782 2783 0
2064 -2783 0
-2064 -2782 0
-2062 2781 0
2780 -2781 0
2062 -2780 0
-2060 2779 0
2778 -2779 0
2060 -2778 0
2776 2777 0
2302 -2777 0
2774 2775 0
2294 -2785 0
566 -2785 0
